* #variable= 416 #constraint= 1017 
-1 x27 +1 x1 >= 0 ;
-1 x27 +1 x14 >= 0 ;
+1 x27 -1 x1 -1 x14 >= -1 ;
+1 x27 +2 x40 +4 x53 +8 x66 +16 x79 +32 x92 +64 x105 +128 x118 +256 x131 +512 x144 +1024 x157 +2048 x170 +4096 x183 +2 x28 +4 x41 +8 x54 +16 x67 +32 x80 +64 x93 +128 x106 +256 x119 +512 x132 +1024 x145 +2048 x158 +4096 x171 +8192 x184 +4 x29 +8 x42 +16 x55 +32 x68 +64 x81 +128 x94 +256 x107 +512 x120 +1024 x133 +2048 x146 +4096 x159 +8192 x172 +16384 x185 +8 x30 +16 x43 +32 x56 +64 x69 +128 x82 +256 x95 +512 x108 +1024 x121 +2048 x134 +4096 x147 +8192 x160 +16384 x173 +32768 x186 +16 x31 +32 x44 +64 x57 +128 x70 +256 x83 +512 x96 +1024 x109 +2048 x122 +4096 x135 +8192 x148 +16384 x161 +32768 x174 +65536 x187 +32 x32 +64 x45 +128 x58 +256 x71 +512 x84 +1024 x97 +2048 x110 +4096 x123 +8192 x136 +16384 x149 +32768 x162 +65536 x175 +131072 x188 +64 x33 +128 x46 +256 x59 +512 x72 +1024 x85 +2048 x98 +4096 x111 +8192 x124 +16384 x137 +32768 x150 +65536 x163 +131072 x176 +262144 x189 +128 x34 +256 x47 +512 x60 +1024 x73 +2048 x86 +4096 x99 +8192 x112 +16384 x125 +32768 x138 +65536 x151 +131072 x164 +262144 x177 +524288 x190 +256 x35 +512 x48 +1024 x61 +2048 x74 +4096 x87 +8192 x100 +16384 x113 +32768 x126 +65536 x139 +131072 x152 +262144 x165 +524288 x178 +1048576 x191 +512 x36 +1024 x49 +2048 x62 +4096 x75 +8192 x88 +16384 x101 +32768 x114 +65536 x127 +131072 x140 +262144 x153 +524288 x166 +1048576 x179 +2097152 x192 +1024 x37 +2048 x50 +4096 x63 +8192 x76 +16384 x89 +32768 x102 +65536 x115 +131072 x128 +262144 x141 +524288 x154 +1048576 x167 +2097152 x180 +4194304 x193 +2048 x38 +4096 x51 +8192 x64 +16384 x77 +32768 x90 +65536 x103 +131072 x116 +262144 x129 +524288 x142 +1048576 x155 +2097152 x168 +4194304 x181 +8388608 x194 +4096 x39 +8192 x52 +16384 x65 +32768 x78 +65536 x91 +131072 x104 +262144 x117 +524288 x130 +1048576 x143 +2097152 x156 +4194304 x169 +8388608 x182 +16777216 x195 -1 x391 -2 x392 -4 x393 -8 x394 -16 x395 -32 x396 -64 x397 -128 x398 -256 x399 -512 x400 -1024 x401 -2048 x402 -4096 x403 -8192 x404 -16384 x405 -32768 x406 -65536 x407 -131072 x408 -262144 x409 -524288 x410 -1048576 x411 -2097152 x412 -4194304 x413 -8388608 x414 -16777216 x415 -33554432 x416 = 0; 
-1 x196 +1 x14 >= 0 ;
-1 x196 +1 x1 >= 0 ;
+1 x196 -1 x14 -1 x1 >= -1 ;
+1 x196 +2 x209 +4 x222 +8 x235 +16 x248 +32 x261 +64 x274 +128 x287 +256 x300 +512 x313 +1024 x326 +2048 x339 +4096 x352 +2 x197 +4 x210 +8 x223 +16 x236 +32 x249 +64 x262 +128 x275 +256 x288 +512 x301 +1024 x314 +2048 x327 +4096 x340 +8192 x353 +4 x198 +8 x211 +16 x224 +32 x237 +64 x250 +128 x263 +256 x276 +512 x289 +1024 x302 +2048 x315 +4096 x328 +8192 x341 +16384 x354 +8 x199 +16 x212 +32 x225 +64 x238 +128 x251 +256 x264 +512 x277 +1024 x290 +2048 x303 +4096 x316 +8192 x329 +16384 x342 +32768 x355 +16 x200 +32 x213 +64 x226 +128 x239 +256 x252 +512 x265 +1024 x278 +2048 x291 +4096 x304 +8192 x317 +16384 x330 +32768 x343 +65536 x356 +32 x201 +64 x214 +128 x227 +256 x240 +512 x253 +1024 x266 +2048 x279 +4096 x292 +8192 x305 +16384 x318 +32768 x331 +65536 x344 +131072 x357 +64 x202 +128 x215 +256 x228 +512 x241 +1024 x254 +2048 x267 +4096 x280 +8192 x293 +16384 x306 +32768 x319 +65536 x332 +131072 x345 +262144 x358 +128 x203 +256 x216 +512 x229 +1024 x242 +2048 x255 +4096 x268 +8192 x281 +16384 x294 +32768 x307 +65536 x320 +131072 x333 +262144 x346 +524288 x359 +256 x204 +512 x217 +1024 x230 +2048 x243 +4096 x256 +8192 x269 +16384 x282 +32768 x295 +65536 x308 +131072 x321 +262144 x334 +524288 x347 +1048576 x360 +512 x205 +1024 x218 +2048 x231 +4096 x244 +8192 x257 +16384 x270 +32768 x283 +65536 x296 +131072 x309 +262144 x322 +524288 x335 +1048576 x348 +2097152 x361 +1024 x206 +2048 x219 +4096 x232 +8192 x245 +16384 x258 +32768 x271 +65536 x284 +131072 x297 +262144 x310 +524288 x323 +1048576 x336 +2097152 x349 +4194304 x362 +2048 x207 +4096 x220 +8192 x233 +16384 x246 +32768 x259 +65536 x272 +131072 x285 +262144 x298 +524288 x311 +1048576 x324 +2097152 x337 +4194304 x350 +8388608 x363 +4096 x208 +8192 x221 +16384 x234 +32768 x247 +65536 x260 +131072 x273 +262144 x286 +524288 x299 +1048576 x312 +2097152 x325 +4194304 x338 +8388608 x351 +16777216 x364 -1 x365 -2 x366 -4 x367 -8 x368 -16 x369 -32 x370 -64 x371 -128 x372 -256 x373 -512 x374 -1024 x375 -2048 x376 -4096 x377 -8192 x378 -16384 x379 -32768 x380 -65536 x381 -131072 x382 -262144 x383 -524288 x384 -1048576 x385 -2097152 x386 -4194304 x387 -8388608 x388 -16777216 x389 -33554432 x390 = 0; 
-1 x391 +1 x365 -2 x392 +2 x366 -4 x393 +4 x367 -8 x394 +8 x368 -16 x395 +16 x369 -32 x396 +32 x370 -64 x397 +64 x371 -128 x398 +128 x372 -256 x399 +256 x373 -512 x400 +512 x374 -1024 x401 +1024 x375 -2048 x402 +2048 x376 -4096 x403 +4096 x377 -8192 x404 +8192 x378 -16384 x405 +16384 x379 -32768 x406 +32768 x380 -65536 x407 +65536 x381 -131072 x408 +131072 x382 -262144 x409 +262144 x383 -524288 x410 +524288 x384 -1048576 x411 +1048576 x385 -2097152 x412 +2097152 x386 -4194304 x413 +4194304 x387 -8388608 x414 +8388608 x388 -16777216 x415 +16777216 x389 -33554432 x416 +33554432 x390 >= 1 ;
-1 x40 +1 x2 >= 0 ;
-1 x40 +1 x14 >= 0 ;
+1 x40 -1 x2 -1 x14 >= -1 ;
-1 x28 +1 x1 >= 0 ;
-1 x28 +1 x15 >= 0 ;
+1 x28 -1 x1 -1 x15 >= -1 ;
-1 x209 +1 x15 >= 0 ;
-1 x209 +1 x1 >= 0 ;
+1 x209 -1 x15 -1 x1 >= -1 ;
-1 x197 +1 x14 >= 0 ;
-1 x197 +1 x2 >= 0 ;
+1 x197 -1 x14 -1 x2 >= -1 ;
-1 x53 +1 x3 >= 0 ;
-1 x53 +1 x14 >= 0 ;
+1 x53 -1 x3 -1 x14 >= -1 ;
-1 x41 +1 x2 >= 0 ;
-1 x41 +1 x15 >= 0 ;
+1 x41 -1 x2 -1 x15 >= -1 ;
-1 x29 +1 x1 >= 0 ;
-1 x29 +1 x16 >= 0 ;
+1 x29 -1 x1 -1 x16 >= -1 ;
-1 x222 +1 x16 >= 0 ;
-1 x222 +1 x1 >= 0 ;
+1 x222 -1 x16 -1 x1 >= -1 ;
-1 x210 +1 x15 >= 0 ;
-1 x210 +1 x2 >= 0 ;
+1 x210 -1 x15 -1 x2 >= -1 ;
-1 x198 +1 x14 >= 0 ;
-1 x198 +1 x3 >= 0 ;
+1 x198 -1 x14 -1 x3 >= -1 ;
-1 x66 +1 x4 >= 0 ;
-1 x66 +1 x14 >= 0 ;
+1 x66 -1 x4 -1 x14 >= -1 ;
-1 x54 +1 x3 >= 0 ;
-1 x54 +1 x15 >= 0 ;
+1 x54 -1 x3 -1 x15 >= -1 ;
-1 x42 +1 x2 >= 0 ;
-1 x42 +1 x16 >= 0 ;
+1 x42 -1 x2 -1 x16 >= -1 ;
-1 x30 +1 x1 >= 0 ;
-1 x30 +1 x17 >= 0 ;
+1 x30 -1 x1 -1 x17 >= -1 ;
-1 x235 +1 x17 >= 0 ;
-1 x235 +1 x1 >= 0 ;
+1 x235 -1 x17 -1 x1 >= -1 ;
-1 x223 +1 x16 >= 0 ;
-1 x223 +1 x2 >= 0 ;
+1 x223 -1 x16 -1 x2 >= -1 ;
-1 x211 +1 x15 >= 0 ;
-1 x211 +1 x3 >= 0 ;
+1 x211 -1 x15 -1 x3 >= -1 ;
-1 x199 +1 x14 >= 0 ;
-1 x199 +1 x4 >= 0 ;
+1 x199 -1 x14 -1 x4 >= -1 ;
-1 x79 +1 x5 >= 0 ;
-1 x79 +1 x14 >= 0 ;
+1 x79 -1 x5 -1 x14 >= -1 ;
-1 x67 +1 x4 >= 0 ;
-1 x67 +1 x15 >= 0 ;
+1 x67 -1 x4 -1 x15 >= -1 ;
-1 x55 +1 x3 >= 0 ;
-1 x55 +1 x16 >= 0 ;
+1 x55 -1 x3 -1 x16 >= -1 ;
-1 x43 +1 x2 >= 0 ;
-1 x43 +1 x17 >= 0 ;
+1 x43 -1 x2 -1 x17 >= -1 ;
-1 x31 +1 x1 >= 0 ;
-1 x31 +1 x18 >= 0 ;
+1 x31 -1 x1 -1 x18 >= -1 ;
-1 x248 +1 x18 >= 0 ;
-1 x248 +1 x1 >= 0 ;
+1 x248 -1 x18 -1 x1 >= -1 ;
-1 x236 +1 x17 >= 0 ;
-1 x236 +1 x2 >= 0 ;
+1 x236 -1 x17 -1 x2 >= -1 ;
-1 x224 +1 x16 >= 0 ;
-1 x224 +1 x3 >= 0 ;
+1 x224 -1 x16 -1 x3 >= -1 ;
-1 x212 +1 x15 >= 0 ;
-1 x212 +1 x4 >= 0 ;
+1 x212 -1 x15 -1 x4 >= -1 ;
-1 x200 +1 x14 >= 0 ;
-1 x200 +1 x5 >= 0 ;
+1 x200 -1 x14 -1 x5 >= -1 ;
-1 x92 +1 x6 >= 0 ;
-1 x92 +1 x14 >= 0 ;
+1 x92 -1 x6 -1 x14 >= -1 ;
-1 x80 +1 x5 >= 0 ;
-1 x80 +1 x15 >= 0 ;
+1 x80 -1 x5 -1 x15 >= -1 ;
-1 x68 +1 x4 >= 0 ;
-1 x68 +1 x16 >= 0 ;
+1 x68 -1 x4 -1 x16 >= -1 ;
-1 x56 +1 x3 >= 0 ;
-1 x56 +1 x17 >= 0 ;
+1 x56 -1 x3 -1 x17 >= -1 ;
-1 x44 +1 x2 >= 0 ;
-1 x44 +1 x18 >= 0 ;
+1 x44 -1 x2 -1 x18 >= -1 ;
-1 x32 +1 x1 >= 0 ;
-1 x32 +1 x19 >= 0 ;
+1 x32 -1 x1 -1 x19 >= -1 ;
-1 x261 +1 x19 >= 0 ;
-1 x261 +1 x1 >= 0 ;
+1 x261 -1 x19 -1 x1 >= -1 ;
-1 x249 +1 x18 >= 0 ;
-1 x249 +1 x2 >= 0 ;
+1 x249 -1 x18 -1 x2 >= -1 ;
-1 x237 +1 x17 >= 0 ;
-1 x237 +1 x3 >= 0 ;
+1 x237 -1 x17 -1 x3 >= -1 ;
-1 x225 +1 x16 >= 0 ;
-1 x225 +1 x4 >= 0 ;
+1 x225 -1 x16 -1 x4 >= -1 ;
-1 x213 +1 x15 >= 0 ;
-1 x213 +1 x5 >= 0 ;
+1 x213 -1 x15 -1 x5 >= -1 ;
-1 x201 +1 x14 >= 0 ;
-1 x201 +1 x6 >= 0 ;
+1 x201 -1 x14 -1 x6 >= -1 ;
-1 x105 +1 x7 >= 0 ;
-1 x105 +1 x14 >= 0 ;
+1 x105 -1 x7 -1 x14 >= -1 ;
-1 x93 +1 x6 >= 0 ;
-1 x93 +1 x15 >= 0 ;
+1 x93 -1 x6 -1 x15 >= -1 ;
-1 x81 +1 x5 >= 0 ;
-1 x81 +1 x16 >= 0 ;
+1 x81 -1 x5 -1 x16 >= -1 ;
-1 x69 +1 x4 >= 0 ;
-1 x69 +1 x17 >= 0 ;
+1 x69 -1 x4 -1 x17 >= -1 ;
-1 x57 +1 x3 >= 0 ;
-1 x57 +1 x18 >= 0 ;
+1 x57 -1 x3 -1 x18 >= -1 ;
-1 x45 +1 x2 >= 0 ;
-1 x45 +1 x19 >= 0 ;
+1 x45 -1 x2 -1 x19 >= -1 ;
-1 x33 +1 x1 >= 0 ;
-1 x33 +1 x20 >= 0 ;
+1 x33 -1 x1 -1 x20 >= -1 ;
-1 x274 +1 x20 >= 0 ;
-1 x274 +1 x1 >= 0 ;
+1 x274 -1 x20 -1 x1 >= -1 ;
-1 x262 +1 x19 >= 0 ;
-1 x262 +1 x2 >= 0 ;
+1 x262 -1 x19 -1 x2 >= -1 ;
-1 x250 +1 x18 >= 0 ;
-1 x250 +1 x3 >= 0 ;
+1 x250 -1 x18 -1 x3 >= -1 ;
-1 x238 +1 x17 >= 0 ;
-1 x238 +1 x4 >= 0 ;
+1 x238 -1 x17 -1 x4 >= -1 ;
-1 x226 +1 x16 >= 0 ;
-1 x226 +1 x5 >= 0 ;
+1 x226 -1 x16 -1 x5 >= -1 ;
-1 x214 +1 x15 >= 0 ;
-1 x214 +1 x6 >= 0 ;
+1 x214 -1 x15 -1 x6 >= -1 ;
-1 x202 +1 x14 >= 0 ;
-1 x202 +1 x7 >= 0 ;
+1 x202 -1 x14 -1 x7 >= -1 ;
-1 x118 +1 x8 >= 0 ;
-1 x118 +1 x14 >= 0 ;
+1 x118 -1 x8 -1 x14 >= -1 ;
-1 x106 +1 x7 >= 0 ;
-1 x106 +1 x15 >= 0 ;
+1 x106 -1 x7 -1 x15 >= -1 ;
-1 x94 +1 x6 >= 0 ;
-1 x94 +1 x16 >= 0 ;
+1 x94 -1 x6 -1 x16 >= -1 ;
-1 x82 +1 x5 >= 0 ;
-1 x82 +1 x17 >= 0 ;
+1 x82 -1 x5 -1 x17 >= -1 ;
-1 x70 +1 x4 >= 0 ;
-1 x70 +1 x18 >= 0 ;
+1 x70 -1 x4 -1 x18 >= -1 ;
-1 x58 +1 x3 >= 0 ;
-1 x58 +1 x19 >= 0 ;
+1 x58 -1 x3 -1 x19 >= -1 ;
-1 x46 +1 x2 >= 0 ;
-1 x46 +1 x20 >= 0 ;
+1 x46 -1 x2 -1 x20 >= -1 ;
-1 x34 +1 x1 >= 0 ;
-1 x34 +1 x21 >= 0 ;
+1 x34 -1 x1 -1 x21 >= -1 ;
-1 x287 +1 x21 >= 0 ;
-1 x287 +1 x1 >= 0 ;
+1 x287 -1 x21 -1 x1 >= -1 ;
-1 x275 +1 x20 >= 0 ;
-1 x275 +1 x2 >= 0 ;
+1 x275 -1 x20 -1 x2 >= -1 ;
-1 x263 +1 x19 >= 0 ;
-1 x263 +1 x3 >= 0 ;
+1 x263 -1 x19 -1 x3 >= -1 ;
-1 x251 +1 x18 >= 0 ;
-1 x251 +1 x4 >= 0 ;
+1 x251 -1 x18 -1 x4 >= -1 ;
-1 x239 +1 x17 >= 0 ;
-1 x239 +1 x5 >= 0 ;
+1 x239 -1 x17 -1 x5 >= -1 ;
-1 x227 +1 x16 >= 0 ;
-1 x227 +1 x6 >= 0 ;
+1 x227 -1 x16 -1 x6 >= -1 ;
-1 x215 +1 x15 >= 0 ;
-1 x215 +1 x7 >= 0 ;
+1 x215 -1 x15 -1 x7 >= -1 ;
-1 x203 +1 x14 >= 0 ;
-1 x203 +1 x8 >= 0 ;
+1 x203 -1 x14 -1 x8 >= -1 ;
-1 x131 +1 x9 >= 0 ;
-1 x131 +1 x14 >= 0 ;
+1 x131 -1 x9 -1 x14 >= -1 ;
-1 x119 +1 x8 >= 0 ;
-1 x119 +1 x15 >= 0 ;
+1 x119 -1 x8 -1 x15 >= -1 ;
-1 x107 +1 x7 >= 0 ;
-1 x107 +1 x16 >= 0 ;
+1 x107 -1 x7 -1 x16 >= -1 ;
-1 x95 +1 x6 >= 0 ;
-1 x95 +1 x17 >= 0 ;
+1 x95 -1 x6 -1 x17 >= -1 ;
-1 x83 +1 x5 >= 0 ;
-1 x83 +1 x18 >= 0 ;
+1 x83 -1 x5 -1 x18 >= -1 ;
-1 x71 +1 x4 >= 0 ;
-1 x71 +1 x19 >= 0 ;
+1 x71 -1 x4 -1 x19 >= -1 ;
-1 x59 +1 x3 >= 0 ;
-1 x59 +1 x20 >= 0 ;
+1 x59 -1 x3 -1 x20 >= -1 ;
-1 x47 +1 x2 >= 0 ;
-1 x47 +1 x21 >= 0 ;
+1 x47 -1 x2 -1 x21 >= -1 ;
-1 x35 +1 x1 >= 0 ;
-1 x35 +1 x22 >= 0 ;
+1 x35 -1 x1 -1 x22 >= -1 ;
-1 x300 +1 x22 >= 0 ;
-1 x300 +1 x1 >= 0 ;
+1 x300 -1 x22 -1 x1 >= -1 ;
-1 x288 +1 x21 >= 0 ;
-1 x288 +1 x2 >= 0 ;
+1 x288 -1 x21 -1 x2 >= -1 ;
-1 x276 +1 x20 >= 0 ;
-1 x276 +1 x3 >= 0 ;
+1 x276 -1 x20 -1 x3 >= -1 ;
-1 x264 +1 x19 >= 0 ;
-1 x264 +1 x4 >= 0 ;
+1 x264 -1 x19 -1 x4 >= -1 ;
-1 x252 +1 x18 >= 0 ;
-1 x252 +1 x5 >= 0 ;
+1 x252 -1 x18 -1 x5 >= -1 ;
-1 x240 +1 x17 >= 0 ;
-1 x240 +1 x6 >= 0 ;
+1 x240 -1 x17 -1 x6 >= -1 ;
-1 x228 +1 x16 >= 0 ;
-1 x228 +1 x7 >= 0 ;
+1 x228 -1 x16 -1 x7 >= -1 ;
-1 x216 +1 x15 >= 0 ;
-1 x216 +1 x8 >= 0 ;
+1 x216 -1 x15 -1 x8 >= -1 ;
-1 x204 +1 x14 >= 0 ;
-1 x204 +1 x9 >= 0 ;
+1 x204 -1 x14 -1 x9 >= -1 ;
-1 x144 +1 x10 >= 0 ;
-1 x144 +1 x14 >= 0 ;
+1 x144 -1 x10 -1 x14 >= -1 ;
-1 x132 +1 x9 >= 0 ;
-1 x132 +1 x15 >= 0 ;
+1 x132 -1 x9 -1 x15 >= -1 ;
-1 x120 +1 x8 >= 0 ;
-1 x120 +1 x16 >= 0 ;
+1 x120 -1 x8 -1 x16 >= -1 ;
-1 x108 +1 x7 >= 0 ;
-1 x108 +1 x17 >= 0 ;
+1 x108 -1 x7 -1 x17 >= -1 ;
-1 x96 +1 x6 >= 0 ;
-1 x96 +1 x18 >= 0 ;
+1 x96 -1 x6 -1 x18 >= -1 ;
-1 x84 +1 x5 >= 0 ;
-1 x84 +1 x19 >= 0 ;
+1 x84 -1 x5 -1 x19 >= -1 ;
-1 x72 +1 x4 >= 0 ;
-1 x72 +1 x20 >= 0 ;
+1 x72 -1 x4 -1 x20 >= -1 ;
-1 x60 +1 x3 >= 0 ;
-1 x60 +1 x21 >= 0 ;
+1 x60 -1 x3 -1 x21 >= -1 ;
-1 x48 +1 x2 >= 0 ;
-1 x48 +1 x22 >= 0 ;
+1 x48 -1 x2 -1 x22 >= -1 ;
-1 x36 +1 x1 >= 0 ;
-1 x36 +1 x23 >= 0 ;
+1 x36 -1 x1 -1 x23 >= -1 ;
-1 x313 +1 x23 >= 0 ;
-1 x313 +1 x1 >= 0 ;
+1 x313 -1 x23 -1 x1 >= -1 ;
-1 x301 +1 x22 >= 0 ;
-1 x301 +1 x2 >= 0 ;
+1 x301 -1 x22 -1 x2 >= -1 ;
-1 x289 +1 x21 >= 0 ;
-1 x289 +1 x3 >= 0 ;
+1 x289 -1 x21 -1 x3 >= -1 ;
-1 x277 +1 x20 >= 0 ;
-1 x277 +1 x4 >= 0 ;
+1 x277 -1 x20 -1 x4 >= -1 ;
-1 x265 +1 x19 >= 0 ;
-1 x265 +1 x5 >= 0 ;
+1 x265 -1 x19 -1 x5 >= -1 ;
-1 x253 +1 x18 >= 0 ;
-1 x253 +1 x6 >= 0 ;
+1 x253 -1 x18 -1 x6 >= -1 ;
-1 x241 +1 x17 >= 0 ;
-1 x241 +1 x7 >= 0 ;
+1 x241 -1 x17 -1 x7 >= -1 ;
-1 x229 +1 x16 >= 0 ;
-1 x229 +1 x8 >= 0 ;
+1 x229 -1 x16 -1 x8 >= -1 ;
-1 x217 +1 x15 >= 0 ;
-1 x217 +1 x9 >= 0 ;
+1 x217 -1 x15 -1 x9 >= -1 ;
-1 x205 +1 x14 >= 0 ;
-1 x205 +1 x10 >= 0 ;
+1 x205 -1 x14 -1 x10 >= -1 ;
-1 x157 +1 x11 >= 0 ;
-1 x157 +1 x14 >= 0 ;
+1 x157 -1 x11 -1 x14 >= -1 ;
-1 x145 +1 x10 >= 0 ;
-1 x145 +1 x15 >= 0 ;
+1 x145 -1 x10 -1 x15 >= -1 ;
-1 x133 +1 x9 >= 0 ;
-1 x133 +1 x16 >= 0 ;
+1 x133 -1 x9 -1 x16 >= -1 ;
-1 x121 +1 x8 >= 0 ;
-1 x121 +1 x17 >= 0 ;
+1 x121 -1 x8 -1 x17 >= -1 ;
-1 x109 +1 x7 >= 0 ;
-1 x109 +1 x18 >= 0 ;
+1 x109 -1 x7 -1 x18 >= -1 ;
-1 x97 +1 x6 >= 0 ;
-1 x97 +1 x19 >= 0 ;
+1 x97 -1 x6 -1 x19 >= -1 ;
-1 x85 +1 x5 >= 0 ;
-1 x85 +1 x20 >= 0 ;
+1 x85 -1 x5 -1 x20 >= -1 ;
-1 x73 +1 x4 >= 0 ;
-1 x73 +1 x21 >= 0 ;
+1 x73 -1 x4 -1 x21 >= -1 ;
-1 x61 +1 x3 >= 0 ;
-1 x61 +1 x22 >= 0 ;
+1 x61 -1 x3 -1 x22 >= -1 ;
-1 x49 +1 x2 >= 0 ;
-1 x49 +1 x23 >= 0 ;
+1 x49 -1 x2 -1 x23 >= -1 ;
-1 x37 +1 x1 >= 0 ;
-1 x37 +1 x24 >= 0 ;
+1 x37 -1 x1 -1 x24 >= -1 ;
-1 x326 +1 x24 >= 0 ;
-1 x326 +1 x1 >= 0 ;
+1 x326 -1 x24 -1 x1 >= -1 ;
-1 x314 +1 x23 >= 0 ;
-1 x314 +1 x2 >= 0 ;
+1 x314 -1 x23 -1 x2 >= -1 ;
-1 x302 +1 x22 >= 0 ;
-1 x302 +1 x3 >= 0 ;
+1 x302 -1 x22 -1 x3 >= -1 ;
-1 x290 +1 x21 >= 0 ;
-1 x290 +1 x4 >= 0 ;
+1 x290 -1 x21 -1 x4 >= -1 ;
-1 x278 +1 x20 >= 0 ;
-1 x278 +1 x5 >= 0 ;
+1 x278 -1 x20 -1 x5 >= -1 ;
-1 x266 +1 x19 >= 0 ;
-1 x266 +1 x6 >= 0 ;
+1 x266 -1 x19 -1 x6 >= -1 ;
-1 x254 +1 x18 >= 0 ;
-1 x254 +1 x7 >= 0 ;
+1 x254 -1 x18 -1 x7 >= -1 ;
-1 x242 +1 x17 >= 0 ;
-1 x242 +1 x8 >= 0 ;
+1 x242 -1 x17 -1 x8 >= -1 ;
-1 x230 +1 x16 >= 0 ;
-1 x230 +1 x9 >= 0 ;
+1 x230 -1 x16 -1 x9 >= -1 ;
-1 x218 +1 x15 >= 0 ;
-1 x218 +1 x10 >= 0 ;
+1 x218 -1 x15 -1 x10 >= -1 ;
-1 x206 +1 x14 >= 0 ;
-1 x206 +1 x11 >= 0 ;
+1 x206 -1 x14 -1 x11 >= -1 ;
-1 x170 +1 x12 >= 0 ;
-1 x170 +1 x14 >= 0 ;
+1 x170 -1 x12 -1 x14 >= -1 ;
-1 x158 +1 x11 >= 0 ;
-1 x158 +1 x15 >= 0 ;
+1 x158 -1 x11 -1 x15 >= -1 ;
-1 x146 +1 x10 >= 0 ;
-1 x146 +1 x16 >= 0 ;
+1 x146 -1 x10 -1 x16 >= -1 ;
-1 x134 +1 x9 >= 0 ;
-1 x134 +1 x17 >= 0 ;
+1 x134 -1 x9 -1 x17 >= -1 ;
-1 x122 +1 x8 >= 0 ;
-1 x122 +1 x18 >= 0 ;
+1 x122 -1 x8 -1 x18 >= -1 ;
-1 x110 +1 x7 >= 0 ;
-1 x110 +1 x19 >= 0 ;
+1 x110 -1 x7 -1 x19 >= -1 ;
-1 x98 +1 x6 >= 0 ;
-1 x98 +1 x20 >= 0 ;
+1 x98 -1 x6 -1 x20 >= -1 ;
-1 x86 +1 x5 >= 0 ;
-1 x86 +1 x21 >= 0 ;
+1 x86 -1 x5 -1 x21 >= -1 ;
-1 x74 +1 x4 >= 0 ;
-1 x74 +1 x22 >= 0 ;
+1 x74 -1 x4 -1 x22 >= -1 ;
-1 x62 +1 x3 >= 0 ;
-1 x62 +1 x23 >= 0 ;
+1 x62 -1 x3 -1 x23 >= -1 ;
-1 x50 +1 x2 >= 0 ;
-1 x50 +1 x24 >= 0 ;
+1 x50 -1 x2 -1 x24 >= -1 ;
-1 x38 +1 x1 >= 0 ;
-1 x38 +1 x25 >= 0 ;
+1 x38 -1 x1 -1 x25 >= -1 ;
-1 x339 +1 x25 >= 0 ;
-1 x339 +1 x1 >= 0 ;
+1 x339 -1 x25 -1 x1 >= -1 ;
-1 x327 +1 x24 >= 0 ;
-1 x327 +1 x2 >= 0 ;
+1 x327 -1 x24 -1 x2 >= -1 ;
-1 x315 +1 x23 >= 0 ;
-1 x315 +1 x3 >= 0 ;
+1 x315 -1 x23 -1 x3 >= -1 ;
-1 x303 +1 x22 >= 0 ;
-1 x303 +1 x4 >= 0 ;
+1 x303 -1 x22 -1 x4 >= -1 ;
-1 x291 +1 x21 >= 0 ;
-1 x291 +1 x5 >= 0 ;
+1 x291 -1 x21 -1 x5 >= -1 ;
-1 x279 +1 x20 >= 0 ;
-1 x279 +1 x6 >= 0 ;
+1 x279 -1 x20 -1 x6 >= -1 ;
-1 x267 +1 x19 >= 0 ;
-1 x267 +1 x7 >= 0 ;
+1 x267 -1 x19 -1 x7 >= -1 ;
-1 x255 +1 x18 >= 0 ;
-1 x255 +1 x8 >= 0 ;
+1 x255 -1 x18 -1 x8 >= -1 ;
-1 x243 +1 x17 >= 0 ;
-1 x243 +1 x9 >= 0 ;
+1 x243 -1 x17 -1 x9 >= -1 ;
-1 x231 +1 x16 >= 0 ;
-1 x231 +1 x10 >= 0 ;
+1 x231 -1 x16 -1 x10 >= -1 ;
-1 x219 +1 x15 >= 0 ;
-1 x219 +1 x11 >= 0 ;
+1 x219 -1 x15 -1 x11 >= -1 ;
-1 x207 +1 x14 >= 0 ;
-1 x207 +1 x12 >= 0 ;
+1 x207 -1 x14 -1 x12 >= -1 ;
-1 x183 +1 x13 >= 0 ;
-1 x183 +1 x14 >= 0 ;
+1 x183 -1 x13 -1 x14 >= -1 ;
-1 x171 +1 x12 >= 0 ;
-1 x171 +1 x15 >= 0 ;
+1 x171 -1 x12 -1 x15 >= -1 ;
-1 x159 +1 x11 >= 0 ;
-1 x159 +1 x16 >= 0 ;
+1 x159 -1 x11 -1 x16 >= -1 ;
-1 x147 +1 x10 >= 0 ;
-1 x147 +1 x17 >= 0 ;
+1 x147 -1 x10 -1 x17 >= -1 ;
-1 x135 +1 x9 >= 0 ;
-1 x135 +1 x18 >= 0 ;
+1 x135 -1 x9 -1 x18 >= -1 ;
-1 x123 +1 x8 >= 0 ;
-1 x123 +1 x19 >= 0 ;
+1 x123 -1 x8 -1 x19 >= -1 ;
-1 x111 +1 x7 >= 0 ;
-1 x111 +1 x20 >= 0 ;
+1 x111 -1 x7 -1 x20 >= -1 ;
-1 x99 +1 x6 >= 0 ;
-1 x99 +1 x21 >= 0 ;
+1 x99 -1 x6 -1 x21 >= -1 ;
-1 x87 +1 x5 >= 0 ;
-1 x87 +1 x22 >= 0 ;
+1 x87 -1 x5 -1 x22 >= -1 ;
-1 x75 +1 x4 >= 0 ;
-1 x75 +1 x23 >= 0 ;
+1 x75 -1 x4 -1 x23 >= -1 ;
-1 x63 +1 x3 >= 0 ;
-1 x63 +1 x24 >= 0 ;
+1 x63 -1 x3 -1 x24 >= -1 ;
-1 x51 +1 x2 >= 0 ;
-1 x51 +1 x25 >= 0 ;
+1 x51 -1 x2 -1 x25 >= -1 ;
-1 x39 +1 x1 >= 0 ;
-1 x39 +1 x26 >= 0 ;
+1 x39 -1 x1 -1 x26 >= -1 ;
-1 x352 +1 x26 >= 0 ;
-1 x352 +1 x1 >= 0 ;
+1 x352 -1 x26 -1 x1 >= -1 ;
-1 x340 +1 x25 >= 0 ;
-1 x340 +1 x2 >= 0 ;
+1 x340 -1 x25 -1 x2 >= -1 ;
-1 x328 +1 x24 >= 0 ;
-1 x328 +1 x3 >= 0 ;
+1 x328 -1 x24 -1 x3 >= -1 ;
-1 x316 +1 x23 >= 0 ;
-1 x316 +1 x4 >= 0 ;
+1 x316 -1 x23 -1 x4 >= -1 ;
-1 x304 +1 x22 >= 0 ;
-1 x304 +1 x5 >= 0 ;
+1 x304 -1 x22 -1 x5 >= -1 ;
-1 x292 +1 x21 >= 0 ;
-1 x292 +1 x6 >= 0 ;
+1 x292 -1 x21 -1 x6 >= -1 ;
-1 x280 +1 x20 >= 0 ;
-1 x280 +1 x7 >= 0 ;
+1 x280 -1 x20 -1 x7 >= -1 ;
-1 x268 +1 x19 >= 0 ;
-1 x268 +1 x8 >= 0 ;
+1 x268 -1 x19 -1 x8 >= -1 ;
-1 x256 +1 x18 >= 0 ;
-1 x256 +1 x9 >= 0 ;
+1 x256 -1 x18 -1 x9 >= -1 ;
-1 x244 +1 x17 >= 0 ;
-1 x244 +1 x10 >= 0 ;
+1 x244 -1 x17 -1 x10 >= -1 ;
-1 x232 +1 x16 >= 0 ;
-1 x232 +1 x11 >= 0 ;
+1 x232 -1 x16 -1 x11 >= -1 ;
-1 x220 +1 x15 >= 0 ;
-1 x220 +1 x12 >= 0 ;
+1 x220 -1 x15 -1 x12 >= -1 ;
-1 x208 +1 x14 >= 0 ;
-1 x208 +1 x13 >= 0 ;
+1 x208 -1 x14 -1 x13 >= -1 ;
-1 x184 +1 x13 >= 0 ;
-1 x184 +1 x15 >= 0 ;
+1 x184 -1 x13 -1 x15 >= -1 ;
-1 x172 +1 x12 >= 0 ;
-1 x172 +1 x16 >= 0 ;
+1 x172 -1 x12 -1 x16 >= -1 ;
-1 x160 +1 x11 >= 0 ;
-1 x160 +1 x17 >= 0 ;
+1 x160 -1 x11 -1 x17 >= -1 ;
-1 x148 +1 x10 >= 0 ;
-1 x148 +1 x18 >= 0 ;
+1 x148 -1 x10 -1 x18 >= -1 ;
-1 x136 +1 x9 >= 0 ;
-1 x136 +1 x19 >= 0 ;
+1 x136 -1 x9 -1 x19 >= -1 ;
-1 x124 +1 x8 >= 0 ;
-1 x124 +1 x20 >= 0 ;
+1 x124 -1 x8 -1 x20 >= -1 ;
-1 x112 +1 x7 >= 0 ;
-1 x112 +1 x21 >= 0 ;
+1 x112 -1 x7 -1 x21 >= -1 ;
-1 x100 +1 x6 >= 0 ;
-1 x100 +1 x22 >= 0 ;
+1 x100 -1 x6 -1 x22 >= -1 ;
-1 x88 +1 x5 >= 0 ;
-1 x88 +1 x23 >= 0 ;
+1 x88 -1 x5 -1 x23 >= -1 ;
-1 x76 +1 x4 >= 0 ;
-1 x76 +1 x24 >= 0 ;
+1 x76 -1 x4 -1 x24 >= -1 ;
-1 x64 +1 x3 >= 0 ;
-1 x64 +1 x25 >= 0 ;
+1 x64 -1 x3 -1 x25 >= -1 ;
-1 x52 +1 x2 >= 0 ;
-1 x52 +1 x26 >= 0 ;
+1 x52 -1 x2 -1 x26 >= -1 ;
-1 x353 +1 x26 >= 0 ;
-1 x353 +1 x2 >= 0 ;
+1 x353 -1 x26 -1 x2 >= -1 ;
-1 x341 +1 x25 >= 0 ;
-1 x341 +1 x3 >= 0 ;
+1 x341 -1 x25 -1 x3 >= -1 ;
-1 x329 +1 x24 >= 0 ;
-1 x329 +1 x4 >= 0 ;
+1 x329 -1 x24 -1 x4 >= -1 ;
-1 x317 +1 x23 >= 0 ;
-1 x317 +1 x5 >= 0 ;
+1 x317 -1 x23 -1 x5 >= -1 ;
-1 x305 +1 x22 >= 0 ;
-1 x305 +1 x6 >= 0 ;
+1 x305 -1 x22 -1 x6 >= -1 ;
-1 x293 +1 x21 >= 0 ;
-1 x293 +1 x7 >= 0 ;
+1 x293 -1 x21 -1 x7 >= -1 ;
-1 x281 +1 x20 >= 0 ;
-1 x281 +1 x8 >= 0 ;
+1 x281 -1 x20 -1 x8 >= -1 ;
-1 x269 +1 x19 >= 0 ;
-1 x269 +1 x9 >= 0 ;
+1 x269 -1 x19 -1 x9 >= -1 ;
-1 x257 +1 x18 >= 0 ;
-1 x257 +1 x10 >= 0 ;
+1 x257 -1 x18 -1 x10 >= -1 ;
-1 x245 +1 x17 >= 0 ;
-1 x245 +1 x11 >= 0 ;
+1 x245 -1 x17 -1 x11 >= -1 ;
-1 x233 +1 x16 >= 0 ;
-1 x233 +1 x12 >= 0 ;
+1 x233 -1 x16 -1 x12 >= -1 ;
-1 x221 +1 x15 >= 0 ;
-1 x221 +1 x13 >= 0 ;
+1 x221 -1 x15 -1 x13 >= -1 ;
-1 x185 +1 x13 >= 0 ;
-1 x185 +1 x16 >= 0 ;
+1 x185 -1 x13 -1 x16 >= -1 ;
-1 x173 +1 x12 >= 0 ;
-1 x173 +1 x17 >= 0 ;
+1 x173 -1 x12 -1 x17 >= -1 ;
-1 x161 +1 x11 >= 0 ;
-1 x161 +1 x18 >= 0 ;
+1 x161 -1 x11 -1 x18 >= -1 ;
-1 x149 +1 x10 >= 0 ;
-1 x149 +1 x19 >= 0 ;
+1 x149 -1 x10 -1 x19 >= -1 ;
-1 x137 +1 x9 >= 0 ;
-1 x137 +1 x20 >= 0 ;
+1 x137 -1 x9 -1 x20 >= -1 ;
-1 x125 +1 x8 >= 0 ;
-1 x125 +1 x21 >= 0 ;
+1 x125 -1 x8 -1 x21 >= -1 ;
-1 x113 +1 x7 >= 0 ;
-1 x113 +1 x22 >= 0 ;
+1 x113 -1 x7 -1 x22 >= -1 ;
-1 x101 +1 x6 >= 0 ;
-1 x101 +1 x23 >= 0 ;
+1 x101 -1 x6 -1 x23 >= -1 ;
-1 x89 +1 x5 >= 0 ;
-1 x89 +1 x24 >= 0 ;
+1 x89 -1 x5 -1 x24 >= -1 ;
-1 x77 +1 x4 >= 0 ;
-1 x77 +1 x25 >= 0 ;
+1 x77 -1 x4 -1 x25 >= -1 ;
-1 x65 +1 x3 >= 0 ;
-1 x65 +1 x26 >= 0 ;
+1 x65 -1 x3 -1 x26 >= -1 ;
-1 x354 +1 x26 >= 0 ;
-1 x354 +1 x3 >= 0 ;
+1 x354 -1 x26 -1 x3 >= -1 ;
-1 x342 +1 x25 >= 0 ;
-1 x342 +1 x4 >= 0 ;
+1 x342 -1 x25 -1 x4 >= -1 ;
-1 x330 +1 x24 >= 0 ;
-1 x330 +1 x5 >= 0 ;
+1 x330 -1 x24 -1 x5 >= -1 ;
-1 x318 +1 x23 >= 0 ;
-1 x318 +1 x6 >= 0 ;
+1 x318 -1 x23 -1 x6 >= -1 ;
-1 x306 +1 x22 >= 0 ;
-1 x306 +1 x7 >= 0 ;
+1 x306 -1 x22 -1 x7 >= -1 ;
-1 x294 +1 x21 >= 0 ;
-1 x294 +1 x8 >= 0 ;
+1 x294 -1 x21 -1 x8 >= -1 ;
-1 x282 +1 x20 >= 0 ;
-1 x282 +1 x9 >= 0 ;
+1 x282 -1 x20 -1 x9 >= -1 ;
-1 x270 +1 x19 >= 0 ;
-1 x270 +1 x10 >= 0 ;
+1 x270 -1 x19 -1 x10 >= -1 ;
-1 x258 +1 x18 >= 0 ;
-1 x258 +1 x11 >= 0 ;
+1 x258 -1 x18 -1 x11 >= -1 ;
-1 x246 +1 x17 >= 0 ;
-1 x246 +1 x12 >= 0 ;
+1 x246 -1 x17 -1 x12 >= -1 ;
-1 x234 +1 x16 >= 0 ;
-1 x234 +1 x13 >= 0 ;
+1 x234 -1 x16 -1 x13 >= -1 ;
-1 x186 +1 x13 >= 0 ;
-1 x186 +1 x17 >= 0 ;
+1 x186 -1 x13 -1 x17 >= -1 ;
-1 x174 +1 x12 >= 0 ;
-1 x174 +1 x18 >= 0 ;
+1 x174 -1 x12 -1 x18 >= -1 ;
-1 x162 +1 x11 >= 0 ;
-1 x162 +1 x19 >= 0 ;
+1 x162 -1 x11 -1 x19 >= -1 ;
-1 x150 +1 x10 >= 0 ;
-1 x150 +1 x20 >= 0 ;
+1 x150 -1 x10 -1 x20 >= -1 ;
-1 x138 +1 x9 >= 0 ;
-1 x138 +1 x21 >= 0 ;
+1 x138 -1 x9 -1 x21 >= -1 ;
-1 x126 +1 x8 >= 0 ;
-1 x126 +1 x22 >= 0 ;
+1 x126 -1 x8 -1 x22 >= -1 ;
-1 x114 +1 x7 >= 0 ;
-1 x114 +1 x23 >= 0 ;
+1 x114 -1 x7 -1 x23 >= -1 ;
-1 x102 +1 x6 >= 0 ;
-1 x102 +1 x24 >= 0 ;
+1 x102 -1 x6 -1 x24 >= -1 ;
-1 x90 +1 x5 >= 0 ;
-1 x90 +1 x25 >= 0 ;
+1 x90 -1 x5 -1 x25 >= -1 ;
-1 x78 +1 x4 >= 0 ;
-1 x78 +1 x26 >= 0 ;
+1 x78 -1 x4 -1 x26 >= -1 ;
-1 x355 +1 x26 >= 0 ;
-1 x355 +1 x4 >= 0 ;
+1 x355 -1 x26 -1 x4 >= -1 ;
-1 x343 +1 x25 >= 0 ;
-1 x343 +1 x5 >= 0 ;
+1 x343 -1 x25 -1 x5 >= -1 ;
-1 x331 +1 x24 >= 0 ;
-1 x331 +1 x6 >= 0 ;
+1 x331 -1 x24 -1 x6 >= -1 ;
-1 x319 +1 x23 >= 0 ;
-1 x319 +1 x7 >= 0 ;
+1 x319 -1 x23 -1 x7 >= -1 ;
-1 x307 +1 x22 >= 0 ;
-1 x307 +1 x8 >= 0 ;
+1 x307 -1 x22 -1 x8 >= -1 ;
-1 x295 +1 x21 >= 0 ;
-1 x295 +1 x9 >= 0 ;
+1 x295 -1 x21 -1 x9 >= -1 ;
-1 x283 +1 x20 >= 0 ;
-1 x283 +1 x10 >= 0 ;
+1 x283 -1 x20 -1 x10 >= -1 ;
-1 x271 +1 x19 >= 0 ;
-1 x271 +1 x11 >= 0 ;
+1 x271 -1 x19 -1 x11 >= -1 ;
-1 x259 +1 x18 >= 0 ;
-1 x259 +1 x12 >= 0 ;
+1 x259 -1 x18 -1 x12 >= -1 ;
-1 x247 +1 x17 >= 0 ;
-1 x247 +1 x13 >= 0 ;
+1 x247 -1 x17 -1 x13 >= -1 ;
-1 x187 +1 x13 >= 0 ;
-1 x187 +1 x18 >= 0 ;
+1 x187 -1 x13 -1 x18 >= -1 ;
-1 x175 +1 x12 >= 0 ;
-1 x175 +1 x19 >= 0 ;
+1 x175 -1 x12 -1 x19 >= -1 ;
-1 x163 +1 x11 >= 0 ;
-1 x163 +1 x20 >= 0 ;
+1 x163 -1 x11 -1 x20 >= -1 ;
-1 x151 +1 x10 >= 0 ;
-1 x151 +1 x21 >= 0 ;
+1 x151 -1 x10 -1 x21 >= -1 ;
-1 x139 +1 x9 >= 0 ;
-1 x139 +1 x22 >= 0 ;
+1 x139 -1 x9 -1 x22 >= -1 ;
-1 x127 +1 x8 >= 0 ;
-1 x127 +1 x23 >= 0 ;
+1 x127 -1 x8 -1 x23 >= -1 ;
-1 x115 +1 x7 >= 0 ;
-1 x115 +1 x24 >= 0 ;
+1 x115 -1 x7 -1 x24 >= -1 ;
-1 x103 +1 x6 >= 0 ;
-1 x103 +1 x25 >= 0 ;
+1 x103 -1 x6 -1 x25 >= -1 ;
-1 x91 +1 x5 >= 0 ;
-1 x91 +1 x26 >= 0 ;
+1 x91 -1 x5 -1 x26 >= -1 ;
-1 x356 +1 x26 >= 0 ;
-1 x356 +1 x5 >= 0 ;
+1 x356 -1 x26 -1 x5 >= -1 ;
-1 x344 +1 x25 >= 0 ;
-1 x344 +1 x6 >= 0 ;
+1 x344 -1 x25 -1 x6 >= -1 ;
-1 x332 +1 x24 >= 0 ;
-1 x332 +1 x7 >= 0 ;
+1 x332 -1 x24 -1 x7 >= -1 ;
-1 x320 +1 x23 >= 0 ;
-1 x320 +1 x8 >= 0 ;
+1 x320 -1 x23 -1 x8 >= -1 ;
-1 x308 +1 x22 >= 0 ;
-1 x308 +1 x9 >= 0 ;
+1 x308 -1 x22 -1 x9 >= -1 ;
-1 x296 +1 x21 >= 0 ;
-1 x296 +1 x10 >= 0 ;
+1 x296 -1 x21 -1 x10 >= -1 ;
-1 x284 +1 x20 >= 0 ;
-1 x284 +1 x11 >= 0 ;
+1 x284 -1 x20 -1 x11 >= -1 ;
-1 x272 +1 x19 >= 0 ;
-1 x272 +1 x12 >= 0 ;
+1 x272 -1 x19 -1 x12 >= -1 ;
-1 x260 +1 x18 >= 0 ;
-1 x260 +1 x13 >= 0 ;
+1 x260 -1 x18 -1 x13 >= -1 ;
-1 x188 +1 x13 >= 0 ;
-1 x188 +1 x19 >= 0 ;
+1 x188 -1 x13 -1 x19 >= -1 ;
-1 x176 +1 x12 >= 0 ;
-1 x176 +1 x20 >= 0 ;
+1 x176 -1 x12 -1 x20 >= -1 ;
-1 x164 +1 x11 >= 0 ;
-1 x164 +1 x21 >= 0 ;
+1 x164 -1 x11 -1 x21 >= -1 ;
-1 x152 +1 x10 >= 0 ;
-1 x152 +1 x22 >= 0 ;
+1 x152 -1 x10 -1 x22 >= -1 ;
-1 x140 +1 x9 >= 0 ;
-1 x140 +1 x23 >= 0 ;
+1 x140 -1 x9 -1 x23 >= -1 ;
-1 x128 +1 x8 >= 0 ;
-1 x128 +1 x24 >= 0 ;
+1 x128 -1 x8 -1 x24 >= -1 ;
-1 x116 +1 x7 >= 0 ;
-1 x116 +1 x25 >= 0 ;
+1 x116 -1 x7 -1 x25 >= -1 ;
-1 x104 +1 x6 >= 0 ;
-1 x104 +1 x26 >= 0 ;
+1 x104 -1 x6 -1 x26 >= -1 ;
-1 x357 +1 x26 >= 0 ;
-1 x357 +1 x6 >= 0 ;
+1 x357 -1 x26 -1 x6 >= -1 ;
-1 x345 +1 x25 >= 0 ;
-1 x345 +1 x7 >= 0 ;
+1 x345 -1 x25 -1 x7 >= -1 ;
-1 x333 +1 x24 >= 0 ;
-1 x333 +1 x8 >= 0 ;
+1 x333 -1 x24 -1 x8 >= -1 ;
-1 x321 +1 x23 >= 0 ;
-1 x321 +1 x9 >= 0 ;
+1 x321 -1 x23 -1 x9 >= -1 ;
-1 x309 +1 x22 >= 0 ;
-1 x309 +1 x10 >= 0 ;
+1 x309 -1 x22 -1 x10 >= -1 ;
-1 x297 +1 x21 >= 0 ;
-1 x297 +1 x11 >= 0 ;
+1 x297 -1 x21 -1 x11 >= -1 ;
-1 x285 +1 x20 >= 0 ;
-1 x285 +1 x12 >= 0 ;
+1 x285 -1 x20 -1 x12 >= -1 ;
-1 x273 +1 x19 >= 0 ;
-1 x273 +1 x13 >= 0 ;
+1 x273 -1 x19 -1 x13 >= -1 ;
-1 x189 +1 x13 >= 0 ;
-1 x189 +1 x20 >= 0 ;
+1 x189 -1 x13 -1 x20 >= -1 ;
-1 x177 +1 x12 >= 0 ;
-1 x177 +1 x21 >= 0 ;
+1 x177 -1 x12 -1 x21 >= -1 ;
-1 x165 +1 x11 >= 0 ;
-1 x165 +1 x22 >= 0 ;
+1 x165 -1 x11 -1 x22 >= -1 ;
-1 x153 +1 x10 >= 0 ;
-1 x153 +1 x23 >= 0 ;
+1 x153 -1 x10 -1 x23 >= -1 ;
-1 x141 +1 x9 >= 0 ;
-1 x141 +1 x24 >= 0 ;
+1 x141 -1 x9 -1 x24 >= -1 ;
-1 x129 +1 x8 >= 0 ;
-1 x129 +1 x25 >= 0 ;
+1 x129 -1 x8 -1 x25 >= -1 ;
-1 x117 +1 x7 >= 0 ;
-1 x117 +1 x26 >= 0 ;
+1 x117 -1 x7 -1 x26 >= -1 ;
-1 x358 +1 x26 >= 0 ;
-1 x358 +1 x7 >= 0 ;
+1 x358 -1 x26 -1 x7 >= -1 ;
-1 x346 +1 x25 >= 0 ;
-1 x346 +1 x8 >= 0 ;
+1 x346 -1 x25 -1 x8 >= -1 ;
-1 x334 +1 x24 >= 0 ;
-1 x334 +1 x9 >= 0 ;
+1 x334 -1 x24 -1 x9 >= -1 ;
-1 x322 +1 x23 >= 0 ;
-1 x322 +1 x10 >= 0 ;
+1 x322 -1 x23 -1 x10 >= -1 ;
-1 x310 +1 x22 >= 0 ;
-1 x310 +1 x11 >= 0 ;
+1 x310 -1 x22 -1 x11 >= -1 ;
-1 x298 +1 x21 >= 0 ;
-1 x298 +1 x12 >= 0 ;
+1 x298 -1 x21 -1 x12 >= -1 ;
-1 x286 +1 x20 >= 0 ;
-1 x286 +1 x13 >= 0 ;
+1 x286 -1 x20 -1 x13 >= -1 ;
-1 x190 +1 x13 >= 0 ;
-1 x190 +1 x21 >= 0 ;
+1 x190 -1 x13 -1 x21 >= -1 ;
-1 x178 +1 x12 >= 0 ;
-1 x178 +1 x22 >= 0 ;
+1 x178 -1 x12 -1 x22 >= -1 ;
-1 x166 +1 x11 >= 0 ;
-1 x166 +1 x23 >= 0 ;
+1 x166 -1 x11 -1 x23 >= -1 ;
-1 x154 +1 x10 >= 0 ;
-1 x154 +1 x24 >= 0 ;
+1 x154 -1 x10 -1 x24 >= -1 ;
-1 x142 +1 x9 >= 0 ;
-1 x142 +1 x25 >= 0 ;
+1 x142 -1 x9 -1 x25 >= -1 ;
-1 x130 +1 x8 >= 0 ;
-1 x130 +1 x26 >= 0 ;
+1 x130 -1 x8 -1 x26 >= -1 ;
-1 x359 +1 x26 >= 0 ;
-1 x359 +1 x8 >= 0 ;
+1 x359 -1 x26 -1 x8 >= -1 ;
-1 x347 +1 x25 >= 0 ;
-1 x347 +1 x9 >= 0 ;
+1 x347 -1 x25 -1 x9 >= -1 ;
-1 x335 +1 x24 >= 0 ;
-1 x335 +1 x10 >= 0 ;
+1 x335 -1 x24 -1 x10 >= -1 ;
-1 x323 +1 x23 >= 0 ;
-1 x323 +1 x11 >= 0 ;
+1 x323 -1 x23 -1 x11 >= -1 ;
-1 x311 +1 x22 >= 0 ;
-1 x311 +1 x12 >= 0 ;
+1 x311 -1 x22 -1 x12 >= -1 ;
-1 x299 +1 x21 >= 0 ;
-1 x299 +1 x13 >= 0 ;
+1 x299 -1 x21 -1 x13 >= -1 ;
-1 x191 +1 x13 >= 0 ;
-1 x191 +1 x22 >= 0 ;
+1 x191 -1 x13 -1 x22 >= -1 ;
-1 x179 +1 x12 >= 0 ;
-1 x179 +1 x23 >= 0 ;
+1 x179 -1 x12 -1 x23 >= -1 ;
-1 x167 +1 x11 >= 0 ;
-1 x167 +1 x24 >= 0 ;
+1 x167 -1 x11 -1 x24 >= -1 ;
-1 x155 +1 x10 >= 0 ;
-1 x155 +1 x25 >= 0 ;
+1 x155 -1 x10 -1 x25 >= -1 ;
-1 x143 +1 x9 >= 0 ;
-1 x143 +1 x26 >= 0 ;
+1 x143 -1 x9 -1 x26 >= -1 ;
-1 x360 +1 x26 >= 0 ;
-1 x360 +1 x9 >= 0 ;
+1 x360 -1 x26 -1 x9 >= -1 ;
-1 x348 +1 x25 >= 0 ;
-1 x348 +1 x10 >= 0 ;
+1 x348 -1 x25 -1 x10 >= -1 ;
-1 x336 +1 x24 >= 0 ;
-1 x336 +1 x11 >= 0 ;
+1 x336 -1 x24 -1 x11 >= -1 ;
-1 x324 +1 x23 >= 0 ;
-1 x324 +1 x12 >= 0 ;
+1 x324 -1 x23 -1 x12 >= -1 ;
-1 x312 +1 x22 >= 0 ;
-1 x312 +1 x13 >= 0 ;
+1 x312 -1 x22 -1 x13 >= -1 ;
-1 x192 +1 x13 >= 0 ;
-1 x192 +1 x23 >= 0 ;
+1 x192 -1 x13 -1 x23 >= -1 ;
-1 x180 +1 x12 >= 0 ;
-1 x180 +1 x24 >= 0 ;
+1 x180 -1 x12 -1 x24 >= -1 ;
-1 x168 +1 x11 >= 0 ;
-1 x168 +1 x25 >= 0 ;
+1 x168 -1 x11 -1 x25 >= -1 ;
-1 x156 +1 x10 >= 0 ;
-1 x156 +1 x26 >= 0 ;
+1 x156 -1 x10 -1 x26 >= -1 ;
-1 x361 +1 x26 >= 0 ;
-1 x361 +1 x10 >= 0 ;
+1 x361 -1 x26 -1 x10 >= -1 ;
-1 x349 +1 x25 >= 0 ;
-1 x349 +1 x11 >= 0 ;
+1 x349 -1 x25 -1 x11 >= -1 ;
-1 x337 +1 x24 >= 0 ;
-1 x337 +1 x12 >= 0 ;
+1 x337 -1 x24 -1 x12 >= -1 ;
-1 x325 +1 x23 >= 0 ;
-1 x325 +1 x13 >= 0 ;
+1 x325 -1 x23 -1 x13 >= -1 ;
-1 x193 +1 x13 >= 0 ;
-1 x193 +1 x24 >= 0 ;
+1 x193 -1 x13 -1 x24 >= -1 ;
-1 x181 +1 x12 >= 0 ;
-1 x181 +1 x25 >= 0 ;
+1 x181 -1 x12 -1 x25 >= -1 ;
-1 x169 +1 x11 >= 0 ;
-1 x169 +1 x26 >= 0 ;
+1 x169 -1 x11 -1 x26 >= -1 ;
-1 x362 +1 x26 >= 0 ;
-1 x362 +1 x11 >= 0 ;
+1 x362 -1 x26 -1 x11 >= -1 ;
-1 x350 +1 x25 >= 0 ;
-1 x350 +1 x12 >= 0 ;
+1 x350 -1 x25 -1 x12 >= -1 ;
-1 x338 +1 x24 >= 0 ;
-1 x338 +1 x13 >= 0 ;
+1 x338 -1 x24 -1 x13 >= -1 ;
-1 x194 +1 x13 >= 0 ;
-1 x194 +1 x25 >= 0 ;
+1 x194 -1 x13 -1 x25 >= -1 ;
-1 x182 +1 x12 >= 0 ;
-1 x182 +1 x26 >= 0 ;
+1 x182 -1 x12 -1 x26 >= -1 ;
-1 x363 +1 x26 >= 0 ;
-1 x363 +1 x12 >= 0 ;
+1 x363 -1 x26 -1 x12 >= -1 ;
-1 x351 +1 x25 >= 0 ;
-1 x351 +1 x13 >= 0 ;
+1 x351 -1 x25 -1 x13 >= -1 ;
-1 x195 +1 x13 >= 0 ;
-1 x195 +1 x26 >= 0 ;
+1 x195 -1 x13 -1 x26 >= -1 ;
-1 x364 +1 x26 >= 0 ;
-1 x364 +1 x13 >= 0 ;
+1 x364 -1 x26 -1 x13 >= -1 ;
